param lambda :=
1	0.588027232
2	0.750823986
3	0.957810419
4	0.834939425
5	1.38005779
6	1.17141563
7	0.508887743
8	0.762578147
9	0.77451599
10	1.101937039
;

param mu:= 0.3;
param TMachine := 40;